n_res = 4;
rc = [ 28, 18, 23, 21 ];
n_tasks = 30;
d = [ 10, 5, 2, 2, 4, 10, 3, 6, 10, 6, 4, 8, 4, 8, 10, 9, 6, 3, 7, 3, 1, 9, 3, 5, 7, 10, 8, 2, 6, 6 ];
rr = [| 0, 4, 8, 6, 0, 0, 0, 9, 0, 6, 5, 0, 0, 1, 0, 0, 10, 9, 1, 2, 8, 0, 5, 8, 0, 0, 1, 0, 5, 9
      | 9, 0, 0, 3, 0, 4, 5, 9, 9, 0, 0, 0, 8, 1, 0, 0, 0, 0, 0, 0, 7, 1, 0, 7, 10, 7, 0, 0, 0, 10
      | 10, 0, 0, 5, 4, 7, 8, 0, 0, 6, 0, 0, 6, 2, 0, 10, 0, 0, 1, 6, 0, 2, 0, 0, 10, 0, 8, 2, 4, 0
      | 0, 9, 0, 0, 0, 0, 10, 0, 5, 0, 7, 6, 7, 2, 3, 0, 0, 0, 1, 0, 1, 9, 0, 0, 10, 7, 0, 9, 0, 0 |];
suc = [ { 2 }, 
        { 3 }, 
        { 4 }, 
        { 5 }, 
        { 6 }, 
        { 7 }, 
        { 8 }, 
        { 9 }, 
        { 10 }, 
        { 11 }, 
        { 12 }, 
        { 13 }, 
        { 14 }, 
        { 15 }, 
        { 16 }, 
        { 17 }, 
        { 18 }, 
        { 19 }, 
        { 20 }, 
        { 21 }, 
        { 22 }, 
        { 23 }, 
        { 24 }, 
        { 25 }, 
        { 26 }, 
        { 27 }, 
        { 28 }, 
        { 29 }, 
        { 30 }, 
        {  }]; 
